c User generated cnf file
p cnf 15 44
12 2 -11 0 
8 -4 8 0 
11 -12 5 0 
5 10 -5 0 
-15 13 3 0 
1 13 -12 0 
-15 1 10 0 
-15 8 10 0 
7 -3 8 0 
6 -13 5 0 
-6 3 2 0 
12 -15 12 0 
-8 7 13 0 
-11 15 7 0 
13 -12 12 0 
3 -10 10 0 
12 13 -12 0 
-7 5 14 0 
13 11 -15 0 
6 -2 4 0 
14 -15 10 0 
2 -15 8 0 
6 14 -3 0 
8 -6 13 0 
3 -1 7 0 
15 -14 7 0 
-5 9 12 0 
1 7 -8 0 
-14 12 1 0 
-12 10 8 0 
12 10 -8 0 
13 2 -14 0 
12 -15 4 0 
-2 11 14 0 
7 3 -6 0 
-7 2 8 0 
-2 12 6 0 
6 7 -4 0 
-13 10 6 0 
2 15 -6 0 
12 -15 7 0 
14 15 -9 0 
-10 3 9 0 
15 10 -7 0 
